(set-logic QF_LIA)
(declare-fun x0 () Int)
(declare-fun x1 () Int)
(declare-fun x2 () Int)
(declare-fun x3 () Int)
(declare-fun x4 () Int)
(declare-fun x5 () Int)
(declare-fun x6 () Int)
(declare-fun x7 () Int)
(declare-fun x8 () Int)
(declare-fun x9 () Int)
(declare-fun A0 () Bool)
(declare-fun A1 () Bool)
(declare-fun A2 () Bool)
(declare-fun A3 () Bool)
(declare-fun A4 () Bool)
(declare-fun A5 () Bool)
(declare-fun A6 () Bool)
(declare-fun A7 () Bool)
(declare-fun A8 () Bool)
(declare-fun A9 () Bool)
(assert (let ((.def_0 (not A9))) (let ((.def_1 (or A9 .def_0))) (let ((.def_2 (* (- 1) x3))) (let ((.def_3 (< .def_2 (- 1)))) (let ((.def_4 (not .def_3))) (let ((.def_5 (* (- 1) x8))) (let ((.def_6 (* (- 1) x1))) (let ((.def_7 (+ .def_6 .def_5))) (let ((.def_8 (< .def_7 (- 1)))) (let ((.def_9 (and .def_8 .def_4))) (let ((.def_10 (not .def_9))) (let ((.def_11 (or .def_10 .def_1))) (let ((.def_12 (not .def_11))) (let ((.def_13 (* 1 x4))) (let ((.def_14 (* (- 1) x2))) (let ((.def_15 (+ .def_14 .def_13))) (let ((.def_16 (< .def_15 1))) (let ((.def_17 (not .def_16))) (let ((.def_18 (* 1 x9))) (let ((.def_19 (* 1 x8))) (let ((.def_20 (+ .def_19 .def_18))) (let ((.def_21 (< .def_20 1))) (let ((.def_22 (or .def_21 .def_17))) (let ((.def_23 (not .def_22))) (let ((.def_24 (* 1 x6))) (let ((.def_25 (< .def_24 (- 1)))) (let ((.def_26 (not .def_25))) (let ((.def_27 (* (- 1) x9))) (let ((.def_28 (* 1 x7))) (let ((.def_29 (+ .def_28 .def_27))) (let ((.def_30 (< .def_29 1))) (let ((.def_31 (not .def_30))) (let ((.def_32 (or .def_31 .def_26))) (let ((.def_33 (not .def_32))) (let ((.def_34 (= .def_33 .def_23))) (let ((.def_35 (not .def_34))) (let ((.def_36 (and .def_35 .def_12))) (let ((.def_37 (not .def_36))) (let ((.def_38 (< .def_14 1))) (let ((.def_39 (not A1))) (let ((.def_40 (or .def_39 .def_38))) (let ((.def_41 (+ .def_24 .def_5))) (let ((.def_42 (< .def_41 (- 1)))) (let ((.def_43 (* 1 x2))) (let ((.def_44 (< .def_43 (- 1)))) (let ((.def_45 (and .def_44 .def_42))) (let ((.def_46 (= .def_45 .def_40))) (let ((.def_47 (< .def_13 1))) (let ((.def_48 (not .def_47))) (let ((.def_49 (or .def_48 A4))) (let ((.def_50 (* 1 x5))) (let ((.def_51 (+ .def_6 .def_50))) (let ((.def_52 (< .def_51 1))) (let ((.def_53 (not .def_52))) (let ((.def_54 (and .def_53 .def_39))) (let ((.def_55 (not .def_54))) (let ((.def_56 (and .def_55 .def_49))) (let ((.def_57 (not .def_56))) (let ((.def_58 (and .def_57 .def_46))) (let ((.def_59 (not .def_58))) (let ((.def_60 (and .def_59 .def_37))) (let ((.def_61 (not .def_60))) (let ((.def_62 (< .def_14 (- 1)))) (let ((.def_63 (* 1 x0))) (let ((.def_64 (< .def_63 1))) (let ((.def_65 (or .def_64 .def_62))) (let ((.def_66 (not A8))) (let ((.def_67 (< .def_19 1))) (let ((.def_68 (and .def_67 .def_66))) (let ((.def_69 (not .def_68))) (let ((.def_70 (and .def_69 .def_65))) (let ((.def_71 (* (- 1) x5))) (let ((.def_72 (< .def_71 (- 1)))) (let ((.def_73 (and .def_72 .def_0))) (let ((.def_74 (not A5))) (let ((.def_75 (or A2 .def_74))) (let ((.def_76 (and .def_75 .def_73))) (let ((.def_77 (= .def_76 .def_70))) (let ((.def_78 (not .def_77))) (let ((.def_79 (and .def_0 .def_25))) (let ((.def_80 (not .def_79))) (let ((.def_81 (* (- 1) x4))) (let ((.def_82 (< .def_81 1))) (let ((.def_83 (not .def_82))) (let ((.def_84 (or .def_83 A4))) (let ((.def_85 (not .def_84))) (let ((.def_86 (or .def_85 .def_80))) (let ((.def_87 (and .def_74 A5))) (let ((.def_88 (not .def_87))) (let ((.def_89 (+ .def_81 .def_24))) (let ((.def_90 (< .def_89 1))) (let ((.def_91 (not .def_90))) (let ((.def_92 (or A5 .def_91))) (let ((.def_93 (not .def_92))) (let ((.def_94 (and .def_93 .def_88))) (let ((.def_95 (or .def_94 .def_86))) (let ((.def_96 (not .def_95))) (let ((.def_97 (or .def_96 .def_78))) (let ((.def_98 (not .def_97))) (let ((.def_99 (and .def_98 .def_61))) (let ((.def_100 (* (- 1) x7))) (let ((.def_101 (+ .def_71 .def_100))) (let ((.def_102 (< .def_101 (- 1)))) (let ((.def_103 (= A0 .def_102))) (let ((.def_104 (not .def_103))) (let ((.def_105 (and .def_26 A3))) (let ((.def_106 (and .def_105 .def_104))) (let ((.def_107 (not A4))) (let ((.def_108 (* (- 1) x0))) (let ((.def_109 (+ .def_108 .def_81))) (let ((.def_110 (< .def_109 (- 1)))) (let ((.def_111 (not .def_110))) (let ((.def_112 (and .def_111 .def_107))) (let ((.def_113 (+ .def_14 .def_71))) (let ((.def_114 (< .def_113 1))) (let ((.def_115 (not .def_114))) (let ((.def_116 (and .def_115 .def_74))) (let ((.def_117 (not .def_116))) (let ((.def_118 (or .def_117 .def_112))) (let ((.def_119 (not .def_118))) (let ((.def_120 (or .def_119 .def_106))) (let ((.def_121 (not .def_120))) (let ((.def_122 (+ .def_27 .def_19))) (let ((.def_123 (< .def_122 (- 1)))) (let ((.def_124 (and .def_123 .def_74))) (let ((.def_125 (not .def_124))) (let ((.def_126 (< .def_6 (- 1)))) (let ((.def_127 (not .def_126))) (let ((.def_128 (+ .def_81 .def_71))) (let ((.def_129 (< .def_128 (- 1)))) (let ((.def_130 (and .def_129 .def_127))) (let ((.def_131 (or .def_130 .def_125))) (let ((.def_132 (or A0 .def_39))) (let ((.def_133 (not .def_132))) (let ((.def_134 (and .def_66 .def_74))) (let ((.def_135 (and .def_134 .def_133))) (let ((.def_136 (= .def_135 .def_131))) (let ((.def_137 (not .def_136))) (let ((.def_138 (and .def_137 .def_121))) (let ((.def_139 (< .def_5 1))) (let ((.def_140 (< .def_13 (- 1)))) (let ((.def_141 (not .def_140))) (let ((.def_142 (or .def_141 .def_139))) (let ((.def_143 (+ .def_43 .def_28))) (let ((.def_144 (< .def_143 (- 1)))) (let ((.def_145 (not .def_144))) (let ((.def_146 (* 1 x3))) (let ((.def_147 (+ .def_146 .def_19))) (let ((.def_148 (< .def_147 1))) (let ((.def_149 (or .def_148 .def_145))) (let ((.def_150 (not .def_149))) (let ((.def_151 (and .def_150 .def_142))) (let ((.def_152 (< .def_28 1))) (let ((.def_153 (not A7))) (let ((.def_154 (and .def_153 .def_152))) (let ((.def_155 (not .def_154))) (let ((.def_156 (not A3))) (let ((.def_157 (or A5 .def_156))) (let ((.def_158 (and .def_157 .def_155))) (let ((.def_159 (and .def_158 .def_151))) (let ((.def_160 (not .def_159))) (let ((.def_161 (< .def_6 1))) (let ((.def_162 (* 1 x1))) (let ((.def_163 (+ .def_162 .def_5))) (let ((.def_164 (< .def_163 1))) (let ((.def_165 (not .def_164))) (let ((.def_166 (and .def_165 .def_161))) (let ((.def_167 (< .def_63 (- 1)))) (let ((.def_168 (or A3 .def_167))) (let ((.def_169 (or .def_168 .def_166))) (let ((.def_170 (not .def_139))) (let ((.def_171 (and .def_170 A6))) (let ((.def_172 (not .def_171))) (let ((.def_173 (not A6))) (let ((.def_174 (and .def_173 A6))) (let ((.def_175 (and .def_174 .def_172))) (let ((.def_176 (and .def_175 .def_169))) (let ((.def_177 (or .def_176 .def_160))) (let ((.def_178 (and .def_177 .def_138))) (let ((.def_179 (not .def_178))) (let ((.def_180 (or .def_179 .def_99))) (let ((.def_181 (< .def_81 (- 1)))) (let ((.def_182 (not .def_181))) (let ((.def_183 (or .def_182 .def_0))) (let ((.def_184 (not .def_183))) (let ((.def_185 (< .def_2 1))) (let ((.def_186 (* (- 1) x6))) (let ((.def_187 (+ .def_27 .def_186))) (let ((.def_188 (< .def_187 1))) (let ((.def_189 (and .def_188 .def_185))) (let ((.def_190 (not .def_189))) (let ((.def_191 (or .def_190 .def_184))) (let ((.def_192 (or .def_173 .def_127))) (let ((.def_193 (+ .def_162 .def_43))) (let ((.def_194 (< .def_193 (- 1)))) (let ((.def_195 (= .def_194 A6))) (let ((.def_196 (= .def_195 .def_192))) (let ((.def_197 (not .def_196))) (let ((.def_198 (or .def_197 .def_191))) (let ((.def_199 (not .def_38))) (let ((.def_200 (< .def_100 1))) (let ((.def_201 (not .def_200))) (let ((.def_202 (or .def_201 .def_199))) (let ((.def_203 (and .def_38 .def_72))) (let ((.def_204 (not .def_203))) (let ((.def_205 (or .def_204 .def_202))) (let ((.def_206 (not .def_205))) (let ((.def_207 (< .def_186 1))) (let ((.def_208 (not .def_207))) (let ((.def_209 (< .def_108 1))) (let ((.def_210 (and .def_209 .def_208))) (let ((.def_211 (not .def_210))) (let ((.def_212 (or A8 A7))) (let ((.def_213 (and .def_212 .def_211))) (let ((.def_214 (and .def_213 .def_206))) (let ((.def_215 (and .def_214 .def_198))) (let ((.def_216 (not .def_215))) (let ((.def_217 (= .def_74 .def_156))) (let ((.def_218 (not .def_217))) (let ((.def_219 (not .def_67))) (let ((.def_220 (and .def_219 .def_173))) (let ((.def_221 (not .def_220))) (let ((.def_222 (and .def_221 .def_218))) (let ((.def_223 (not .def_222))) (let ((.def_224 (and .def_156 .def_153))) (let ((.def_225 (+ .def_146 .def_5))) (let ((.def_226 (< .def_225 (- 1)))) (let ((.def_227 (+ .def_146 .def_28))) (let ((.def_228 (< .def_227 1))) (let ((.def_229 (not .def_228))) (let ((.def_230 (or .def_229 .def_226))) (let ((.def_231 (not .def_230))) (let ((.def_232 (or .def_231 .def_224))) (let ((.def_233 (or .def_232 .def_223))) (let ((.def_234 (not A0))) (let ((.def_235 (or .def_72 .def_234))) (let ((.def_236 (not .def_235))) (let ((.def_237 (< .def_24 1))) (let ((.def_238 (and .def_237 A2))) (let ((.def_239 (not .def_238))) (let ((.def_240 (or .def_239 .def_236))) (let ((.def_241 (< .def_43 1))) (let ((.def_242 (or .def_152 .def_241))) (let ((.def_243 (not .def_242))) (let ((.def_244 (not .def_209))) (let ((.def_245 (and .def_244 A4))) (let ((.def_246 (and .def_245 .def_243))) (let ((.def_247 (not .def_246))) (let ((.def_248 (or .def_247 .def_240))) (let ((.def_249 (= .def_248 .def_233))) (let ((.def_250 (or .def_249 .def_216))) (let ((.def_251 (not .def_250))) (let ((.def_252 (or .def_4 .def_107))) (let ((.def_253 (< .def_19 (- 1)))) (let ((.def_254 (not .def_253))) (let ((.def_255 (< .def_18 (- 1)))) (let ((.def_256 (not .def_255))) (let ((.def_257 (or .def_256 .def_254))) (let ((.def_258 (not .def_257))) (let ((.def_259 (and .def_258 .def_252))) (let ((.def_260 (not .def_259))) (let ((.def_261 (< .def_27 1))) (let ((.def_262 (not .def_261))) (let ((.def_263 (or .def_126 .def_262))) (let ((.def_264 (not .def_263))) (let ((.def_265 (and .def_74 .def_153))) (let ((.def_266 (and .def_265 .def_264))) (let ((.def_267 (not .def_266))) (let ((.def_268 (and .def_267 .def_260))) (let ((.def_269 (not .def_268))) (let ((.def_270 (+ .def_18 .def_100))) (let ((.def_271 (< .def_270 (- 1)))) (let ((.def_272 (not .def_271))) (let ((.def_273 (+ .def_162 .def_50))) (let ((.def_274 (< .def_273 1))) (let ((.def_275 (or .def_274 .def_272))) (let ((.def_276 (< .def_50 1))) (let ((.def_277 (= .def_276 .def_156))) (let ((.def_278 (= .def_277 .def_275))) (let ((.def_279 (or .def_234 .def_153))) (let ((.def_280 (+ .def_50 .def_146))) (let ((.def_281 (< .def_280 1))) (let ((.def_282 (or .def_66 .def_281))) (let ((.def_283 (not .def_282))) (let ((.def_284 (or .def_283 .def_279))) (let ((.def_285 (and .def_284 .def_278))) (let ((.def_286 (not .def_285))) (let ((.def_287 (and .def_286 .def_269))) (let ((.def_288 (+ .def_13 .def_108))) (let ((.def_289 (< .def_288 1))) (let ((.def_290 (and .def_74 .def_289))) (let ((.def_291 (= A7 .def_4))) (let ((.def_292 (not .def_291))) (let ((.def_293 (and .def_292 .def_290))) (let ((.def_294 (not .def_293))) (let ((.def_295 (< .def_186 (- 1)))) (let ((.def_296 (not .def_152))) (let ((.def_297 (or .def_296 .def_295))) (let ((.def_298 (< .def_162 (- 1)))) (let ((.def_299 (not .def_298))) (let ((.def_300 (+ .def_146 .def_13))) (let ((.def_301 (< .def_300 (- 1)))) (let ((.def_302 (or .def_301 .def_299))) (let ((.def_303 (and .def_302 .def_297))) (let ((.def_304 (or .def_303 .def_294))) (let ((.def_305 (not .def_304))) (let ((.def_306 (or .def_185 A2))) (let ((.def_307 (or .def_66 .def_254))) (let ((.def_308 (or .def_307 .def_306))) (let ((.def_309 (< .def_109 1))) (let ((.def_310 (= .def_309 .def_0))) (let ((.def_311 (+ .def_6 .def_81))) (let ((.def_312 (< .def_311 (- 1)))) (let ((.def_313 (not .def_312))) (let ((.def_314 (+ .def_13 .def_27))) (let ((.def_315 (< .def_314 (- 1)))) (let ((.def_316 (not .def_315))) (let ((.def_317 (= .def_316 .def_313))) (let ((.def_318 (and .def_317 .def_310))) (let ((.def_319 (and .def_318 .def_308))) (let ((.def_320 (= .def_319 .def_305))) (let ((.def_321 (not .def_320))) (let ((.def_322 (or .def_321 .def_287))) (let ((.def_323 (or .def_322 .def_251))) (let ((.def_324 (and .def_323 .def_180))) (let ((.def_325 (not .def_324))) (let ((.def_326 (<= x9 1))) (let ((.def_327 (<= 0 x9))) (let ((.def_328 (<= x8 1))) (let ((.def_329 (<= 0 x8))) (let ((.def_330 (<= x7 1))) (let ((.def_331 (<= 0 x7))) (let ((.def_332 (<= x6 1))) (let ((.def_333 (<= 0 x6))) (let ((.def_334 (<= x5 1))) (let ((.def_335 (<= 0 x5))) (let ((.def_336 (<= x4 1))) (let ((.def_337 (<= 0 x4))) (let ((.def_338 (<= x3 1))) (let ((.def_339 (<= 0 x3))) (let ((.def_340 (<= x2 1))) (let ((.def_341 (<= 0 x2))) (let ((.def_342 (<= x1 1))) (let ((.def_343 (<= 0 x1))) (let ((.def_344 (<= x0 1))) (let ((.def_345 (<= 0 x0))) (let ((.def_346 (and .def_345 .def_344 .def_343 .def_342 .def_341 .def_340 .def_339 .def_338 .def_337 .def_336 .def_335 .def_334 .def_333 .def_332 .def_331 .def_330 .def_329 .def_328 .def_327 .def_326 .def_325))) .def_346))))))))))))))))))))))))))))))))))))))))))))))))))))))))))))))))))))))))))))))))))))))))))))))))))))))))))))))))))))))))))))))))))))))))))))))))))))))))))))))))))))))))))))))))))))))))))))))))))))))))))))))))))))))))))))))))))))))))))))))))))))))))))))))))))))))))))))))))))))))))))))))))))))))))))))))))))))))))))))))))))))))))))))))))))))))))))))
(check-sat)
